NAME: tsp30-1
TYPE: TSP
DIMENSION: 30
EDGE_WEIGHT_TYPE: EUC_2D
NODE_COORD_SECTION
0 13 29
1 49 5
2 32 57
3 91 43
4 18 97
5 61 4
6 87 18
7 54 8
8 18 73
9 62 33
10 89 14
11 97 7
12 24 62
13 16 57
14 17 36
15 60 12
16 70 26
17 41 63
18 61 20
19 4 34
20 99 100
21 32 79
22 9 79
23 5 10
24 83 13
25 56 35
26 54 36
27 21 85
28 88 49
29 86 98
EOF